c ---- [ banner ] ------------------------------------------------------------
c
c Kissat SAT Solver
c 
c Copyright (c) 2021-2024 Armin Biere University of Freiburg
c Copyright (c) 2019-2021 Armin Biere Johannes Kepler University Linz
c 
c Version 4.0.1 43f02cf3e992cb44653b35e5cb26f93281552ae0
c gcc (Ubuntu 13.2.0-23ubuntu4) 13.2.0 -W -Wall -O3 -DNDEBUG
c Thu Sep 12 12:27:46 CEST 2024 Linux abryzen9 6.8.0-41-generic x86_64
c
c ---- [ parsing ] -----------------------------------------------------------
c
c opened and reading DIMACS file:
c
c   /data/artifact/AMulet2.0_artifact/exp4/cnf_resyn3_64/64_64_U_SP_CWT_BK_GenMul_resyn3.cnf
c
c parsed 'p cnf 36204 143228' header
c closing input after reading 2795236 bytes (3 MB)
c finished parsing after 0.04 seconds
c
c ---- [ options ] -----------------------------------------------------------
c
c --stable=0                       (different from default '1')
c
c ---- [ solving ] -----------------------------------------------------------
c
c  seconds switched rate     size/glue tier1  binary           remaining
c         MB reductions conflicts size  tier2     irredundant
c          level restarts redundant glue  trail           variables
c
c *  0.04 10 0 0 0  0 0   0   0 0.0 0 0 0 0 0% 35519 107707 36201 100%
c (  0.06 13 0 0 0  0 0   0   0 0.0 0 0 0 0 0% 35519 107707 36201 100%
c .  0.07 13 0 0 0  0 0   0   0 0.0 0 0 0 0 0% 35515 107707 36201 100%
c c  0.19 21 0 0 0  0 0   0   0 0.0 0 0 0 0 0% 41803 97116 33085 91%
c d  0.20 21 0 0 0  0 0   0   0 0.0 0 0 0 0 0% 35571 97116 33085 91%
c =  0.27 21 0 0 0  0 0   0   0 0.0 0 0 0 0 0% 35451 97116 32521 90%
c d  0.28 21 0 0 0  0 0   0   0 0.0 0 0 0 0 0% 34323 97116 32521 90%
c f  0.41 20 0 0 0  0 0   0   0 0.0 0 0 0 0 0% 35362 94044 34056 94%
c e  0.60 28 0 0 0  0 0   0   0 0.0 0 0 0 0 0% 23395 101663 24893 69%
c )  0.60 28 0 0 0  0 0   0   0 0.0 0 0 0 0 0% 23395 101663 24893 69%
c {  0.62 30 0 0 0  0 0   0   0 0.0 0 0 2 6 0% 23395 101663 24893 69%
c -  0.89 30 146 0 1 318 43 1001 655 3.1 13 4 2 6 17% 23535 101652 24893 69%
c -  1.11 30 183 0 2 465 41 2001 1393 3.1 14 5 3 7 22% 23594 101647 24893 69%
c c  1.25 24 219 0 2 559 40 2506 1832 3.2 15 5 3 7 22% 24060 101251 24518 68%
c d  1.26 24 219 0 2 559 40 2506 1831 3.2 15 5 3 7 22% 23310 101251 24518 68%
c u  1.27 24 219 0 2 559 40 2506 1327 3.2 15 5 3 7 22% 22214 101251 24518 68%
c v  1.29 24 219 0 2 559 40 2506 1194 3.2 15 5 3 7 22% 22214 101251 24518 68%
c w  1.31 27 219 0 2 559 40 2506 1189 3.2 15 5 3 7 22% 22214 101251 24518 68%
c x  1.33 27 219 0 2 559 40 2506 1189 3.2 15 5 3 7 22% 22218 101210 24518 68%
c =  1.41 27 219 0 2 559 40 2506 1189 3.2 15 5 3 7 22% 23250 101210 24002 66%
c
c  seconds   switched   rate       size/glue tier1    binary           remaining
c         MB  reductions conflicts       size  tier2      irredundant
c           level restarts    redundant    glue   trail           variables
c
c d  1.41 27 219 0 2 559 40 2506 1185 3.2 15 5 3 7 22% 22216 101210 24002 66%
c t  1.42 27 219 0 2 559 40 2506 1185 3.2 15 5 3 7 22% 22180 101210 24002 66%
c f  1.45 27 219 0 2 559 40 2506 1185 3.2 15 5 3 7 22% 22819 99811 24636 68%
c u  1.52 27 219 0 2 559 40 2506 1091 3.2 15 5 3 7 22% 22824 99811 24636 68%
c v  1.53 27 219 0 2 559 40 2506 1056 3.2 15 5 3 7 22% 22824 99811 24636 68%
c w  1.55 27 219 0 2 559 40 2506 1041 3.2 15 5 3 7 22% 22824 99811 24636 68%
c =  1.62 27 219 0 2 559 40 2506 1041 3.2 15 5 3 7 22% 24064 99811 24016 66%
c d  1.63 27 219 0 2 559 40 2506 1035 3.2 15 5 3 7 22% 22752 99811 24016 66%
c t  1.64 27 219 0 2 559 40 2506 1035 3.2 15 5 3 7 22% 22718 99811 24016 66%
c f  1.66 27 219 0 2 559 40 2506 1035 3.2 15 5 3 7 22% 22967 99123 24339 67%
c -  1.93 27 222 0 3 724 42 3415 1613 3.4 24 7 3 9 26% 22994 99123 24339 67%
c -  2.07 27 351 0 4 800 34 5148 2658 3.1 20 6 2 9 25% 23116 99119 24339 67%
c -  2.33 27 313 0 5 955 31 7149 3924 3.0 19 6 3 9 26% 23182 99117 24339 67%
c d  2.38 27 312 0 5 978 30 7714 4371 2.9 18 6 3 9 26% 23177 99115 24322 67%
c u  2.42 27 312 0 5 978 30 7714 3369 2.9 18 6 3 9 26% 23183 99115 24322 67%
c v  2.44 27 312 0 5 978 30 7714 3185 2.9 18 6 3 9 26% 23183 99115 24322 67%
c w  2.45 27 312 0 5 978 30 7714 3183 2.9 18 6 3 9 26% 23183 99115 24322 67%
c x  2.47 27 312 0 5 978 30 7714 3183 2.9 18 6 3 9 26% 23187 98493 24322 67%
c =  2.56 27 312 0 5 978 30 7714 3183 2.9 18 6 3 9 26% 23979 98493 23926 66%
c d  2.57 27 312 0 5 978 30 7714 3165 2.9 18 6 3 9 26% 22985 98493 23926 66%
c
c  seconds   switched   rate       size/glue tier1    binary          remaining
c         MB  reductions conflicts       size  tier2      irredundant
c           level restarts    redundant    glue   trail          variables
c
c t  2.59 27 312 0 5 978 30 7714 3165 2.9 18 6 3 9 26% 22921 98493 23926 66%
c f  2.62 27 312 0 5 978 30 7714 3165 2.9 18 6 3 9 26% 23078 98114 24078 67%
c c  2.68 27 312 0 5 978 30 7714 3165 2.9 18 6 3 9 26% 23087 98093 24074 66%
c d  2.69 27 312 0 5 978 30 7714 3165 2.9 18 6 3 9 26% 23079 98093 24074 66%
c u  2.71 27 312 0 5 978 30 7714 2991 2.9 18 6 3 9 26% 23082 98093 24074 66%
c v  2.73 27 312 0 5 978 30 7714 2860 2.9 18 6 3 9 26% 23082 98093 24074 66%
c w  2.74 27 312 0 5 978 30 7714 2850 2.9 18 6 3 9 26% 23082 98093 24074 66%
c x  2.76 27 312 0 5 978 30 7714 2849 2.9 18 6 3 9 26% 23091 97017 24074 66%
c =  2.85 27 312 0 5 978 30 7714 2849 2.9 18 6 3 9 26% 23599 97017 23820 66%
c d  2.86 27 312 0 5 978 30 7714 2837 2.9 18 6 3 9 26% 22900 97017 23820 66%
c t  2.87 27 312 0 5 978 30 7714 2837 2.9 18 6 3 9 26% 22889 97017 23820 66%
c f  2.91 27 312 0 5 978 30 7714 2837 2.9 18 6 3 9 26% 23027 96731 23918 66%
c -  3.21 27 284 0 6 1130 29 9385 3788 3.0 19 7 3 9 28% 23066 96731 23918 66%
c o  3.29 27 290 0 6 1147 28 10148 4451 3.0 19 6 3 9 28% 23096 96730 23918 66%
c -  3.54 27 281 0 7 1253 28 11834 5234 3.2 20 6 3 9 28% 23152 96728 23918 66%
c s  3.70 27 275 0 7 1303 28 12523 5859 3.2 21 6 3 9 28% 23177 91527 23918 66%
c e  3.79 27 275 0 7 1303 28 12523 5859 3.2 21 6 3 9 28% 20216 93599 22085 61%
c 2  3.79 27 275 0 7 1303 28 12523 5859 3.2 21 6 3 9 28% 20215 93599 22085 61%
c s  3.80 27 275 0 7 1303 28 12523 5859 3.2 21 6 3 9 28% 20218 92867 22085 61%
c e  3.82 27 275 0 7 1303 28 12523 5859 3.2 21 6 3 9 28% 20142 92912 22045 61%
c
c  seconds   switched    rate        size/glue tier1    binary          remaining
c         MB  reductions   conflicts       size  tier2      irredundant
c           level  restarts     redundant    glue   trail          variables
c
c ^  3.82 27 275 0 7 1303 28 12523 5859 3.2 21 6 3 9 28% 20142 92912 22045 61%
c -  3.98 28 284 0 8 1369 26 14479 5626 3.1 19 6 2 9 27% 20250 92910 22045 61%
c d  4.16 28 284 0 8 1454 26 15799 6747 3.1 19 6 2 9 27% 20270 92909 22021 61%
c u  4.19 28 284 0 8 1454 26 15799 5736 3.1 19 6 2 9 27% 20291 92909 22021 61%
c v  4.22 28 284 0 8 1454 26 15799 4907 3.1 19 6 2 9 27% 20291 92909 22021 61%
c w  4.24 28 284 0 8 1454 26 15799 4906 3.1 19 6 2 9 27% 20291 92909 22021 61%
c x  4.27 28 284 0 8 1454 26 15799 4906 3.1 19 6 2 9 27% 20298 92109 22021 61%
c =  4.40 28 284 0 8 1454 26 15799 4906 3.1 19 6 2 9 27% 20834 92109 21753 60%
c d  4.41 28 284 0 8 1454 26 15799 4891 3.1 19 6 2 9 27% 20117 92109 21753 60%
c t  4.42 28 284 0 8 1454 26 15799 4891 3.1 19 6 2 9 27% 20069 92109 21753 60%
c f  4.47 28 284 0 8 1454 26 15799 4891 3.1 19 6 2 9 27% 20088 91936 21807 60%
c u  4.50 28 284 0 8 1454 26 15799 4683 3.1 19 6 2 9 27% 20095 91936 21807 60%
c v  4.53 28 284 0 8 1454 26 15799 4529 3.1 19 6 2 9 27% 20095 91936 21807 60%
c w  4.57 28 284 0 8 1454 26 15799 4528 3.1 19 6 2 9 27% 20095 91936 21807 60%
c x  4.60 28 284 0 8 1454 26 15799 4528 3.1 19 6 2 9 27% 20137 90883 21807 60%
c =  4.71 28 284 0 8 1454 26 15799 4528 3.1 19 6 2 9 27% 20673 90883 21539 59%
c d  4.71 28 284 0 8 1454 26 15799 4507 3.1 19 6 2 9 27% 20066 90883 21537 59%
c t  4.73 28 284 0 8 1454 26 15799 4507 3.1 19 6 2 9 27% 20036 90883 21537 59%
c f  4.76 28 284 0 8 1454 26 15799 4507 3.1 19 6 2 9 27% 20011 90821 21556 60%
c -  4.92 28 283 0 9 1535 25 17308 5005 3.0 19 6 2 9 27% 20053 90821 21556 60%
c
c  seconds   switched    rate        size/glue tier1    binary          remaining
c         MB  reductions   conflicts       size  tier2      irredundant
c           level  restarts     redundant    glue   trail          variables
c
c o  5.46 28 275 0 9 1833 26 20282 7601 3.0 21 7 2 9 27% 20143 90819 21556 60%
c -  5.48 28 275 0 10 1839 26 20308 6680 3.1 21 7 2 8 27% 20143 90819 21556 60%
c -  5.88 28 274 0 11 2023 26 23470 8225 3.1 21 7 2 8 28% 20240 90816 21556 60%
c s  6.08 28 271 0 11 2099 26 25029 9619 3.1 21 7 2 8 28% 20277 90049 21556 60%
c e  6.19 28 271 0 11 2099 26 25029 9619 3.1 21 7 2 8 28% 16906 94816 19686 54%
c 2  6.19 28 271 0 11 2099 26 25029 9619 3.1 21 7 2 8 28% 16901 94816 19686 54%
c s  6.21 28 271 0 11 2099 26 25029 9619 3.1 21 7 2 8 28% 16981 93518 19686 54%
c e  6.23 28 271 0 11 2099 26 25029 9619 3.1 21 7 2 8 28% 16773 93838 19548 54%
c ^  6.23 28 271 0 11 2099 26 25029 9619 3.1 21 7 2 8 28% 16773 93838 19548 54%
c -  6.44 28 260 0 12 2152 24 26788 8307 3.0 21 7 2 8 28% 16803 93838 19548 54%
c c  6.50 28 259 0 12 2161 24 26931 8439 3.0 21 7 2 8 28% 16828 93765 19531 54%
c d  6.50 28 259 0 12 2161 24 26931 8405 3.0 21 7 2 8 28% 16775 93765 19519 54%
c u  6.54 28 259 0 12 2161 24 26931 7380 3.0 21 7 2 8 28% 16787 93765 19519 54%
c v  6.57 28 259 0 12 2161 24 26931 6456 3.0 21 7 2 8 28% 16787 93765 19519 54%
c w  6.58 28 259 0 12 2161 24 26931 6445 3.0 21 7 2 8 28% 16787 93765 19519 54%
c x  6.62 28 259 0 12 2161 24 26931 6443 3.0 21 7 2 8 28% 16808 92688 19519 54%
c =  6.78 28 259 0 12 2161 24 26931 6443 3.0 21 7 2 8 28% 17566 92687 19140 53%
c d  6.78 28 259 0 12 2161 24 26931 6357 3.0 21 7 2 8 28% 16787 92687 19138 53%
c t  6.80 28 259 0 12 2161 24 26931 6357 3.0 21 7 2 8 28% 16694 92687 19138 53%
c f  6.86 28 259 0 12 2161 24 26931 6357 3.0 21 7 2 8 28% 16856 91918 19281 53%
c
c  seconds   switched     rate        size/glue tier1    binary          remaining
c         MB   reductions   conflicts       size  tier2      irredundant
c           level   restarts     redundant    glue   trail          variables
c
c u  6.90 28 259 0 12 2161 24 26931 6066 3.0 21 7 2 8 28% 16857 91918 19281 53%
c v  6.92 28 259 0 12 2161 24 26931 5886 3.0 21 7 2 8 28% 16857 91918 19281 53%
c w  6.93 28 259 0 12 2161 24 26931 5884 3.0 21 7 2 8 28% 16857 91918 19281 53%
c x  6.99 28 259 0 12 2161 24 26931 5878 3.0 21 7 2 8 28% 16895 89867 19281 53%
c =  7.14 28 259 0 12 2161 24 26931 5878 3.0 21 7 2 8 28% 18059 89867 18699 52%
c d  7.15 28 259 0 12 2161 24 26931 5835 3.0 21 7 2 8 28% 16857 89867 18699 52%
c t  7.17 28 259 0 12 2161 24 26931 5835 3.0 21 7 2 8 28% 16775 89867 18699 52%
c f  7.21 28 259 0 12 2161 24 26931 5835 3.0 21 7 2 8 28% 16794 89529 18751 52%
c -  7.62 28 243 0 13 2345 23 30254 7688 2.9 20 7 2 8 28% 16828 89529 18751 52%
c -  8.07 28 234 0 14 2540 22 33860 9548 2.8 19 7 2 8 29% 16901 89529 18751 52%
c -  8.53 28 225 0 15 2718 21 37601 11055 2.8 19 7 2 8 29% 16964 89529 18751 52%
c o  8.88 28 220 0 15 2917 21 40579 13660 2.8 18 7 2 8 29% 17013 89529 18751 52%
c d  8.97 28 218 0 15 2962 21 41258 14202 2.8 18 7 2 8 29% 16990 89528 18729 52%
c u  9.02 28 218 0 15 2962 21 41258 12513 2.8 18 7 2 8 29% 17008 89528 18729 52%
c v  9.07 28 218 0 15 2962 21 41258 11960 2.8 18 7 2 8 29% 17008 89528 18729 52%
c w  9.10 28 218 0 15 2962 21 41258 11960 2.8 18 7 2 8 29% 17008 89528 18729 52%
c x  9.15 30 218 0 15 2962 21 41258 11960 2.8 18 7 2 8 29% 17009 85766 18729 52%
c =  9.37 30 218 0 15 2962 21 41258 11960 2.8 18 7 2 8 29% 18717 85754 17875 49%
c d  9.37 30 218 0 15 2962 21 41258 11663 2.8 18 7 2 8 29% 16967 85754 17875 49%
c t  9.39 30 218 0 15 2962 21 41258 11663 2.8 18 7 2 8 29% 16769 85754 17875 49%
c
c  seconds   switched     rate         size/glue tier1    binary          remaining
c         MB   reductions   conflicts        size  tier2      irredundant
c           level   restarts      redundant    glue   trail          variables
c
c f  9.42 30 218 0 15 2962 21 41258 11663 2.8 18 7 2 8 29% 16829 85217 17970 50%
c u  9.47 30 218 0 15 2962 21 41258 11176 2.8 18 7 2 8 29% 16837 85217 17970 50%
c v  9.53 30 218 0 15 2962 21 41258 10013 2.8 18 7 2 8 29% 16838 85217 17970 50%
c w  9.55 30 218 0 15 2962 21 41258 10008 2.8 18 7 2 8 29% 16838 85217 17970 50%
c x  9.60 30 218 0 15 2962 21 41258 10008 2.8 18 7 2 8 29% 16838 82323 17970 50%
c =  9.77 30 218 0 15 2962 21 41258 10008 2.8 18 7 2 8 29% 17018 82323 17880 49%
c d  9.78 30 218 0 15 2962 21 41258 9973 2.8 18 7 2 8 29% 16834 82323 17880 49%
c t  9.80 30 218 0 15 2962 21 41258 9973 2.8 18 7 2 8 29% 16821 82323 17880 49%
c f  9.81 30 218 0 15 2962 21 41258 9973 2.8 18 7 2 8 29% 16849 82209 17899 49%
c -  9.84 30 218 0 16 2965 21 41473 8837 2.7 18 7 2 8 29% 16850 82209 17899 49%
c - 10.26 30 208 0 17 3131 20 45473 10776 2.7 18 7 2 8 28% 16947 82207 17899 49%
c - 10.73 30 200 0 18 3336 19 49596 12782 2.6 17 6 2 8 29% 17019 82204 17899 49%
c s 11.12 30 196 0 18 3539 19 52138 15077 2.6 17 7 2 8 29% 17062 79447 17899 49%
c e 11.21 30 196 0 18 3539 19 52138 15077 2.6 17 7 2 8 29% 15319 82561 16759 46%
c 2 11.21 30 196 0 18 3539 19 52138 15077 2.6 17 7 2 8 29% 15317 82561 16759 46%
c s 11.22 30 196 0 18 3539 19 52138 15077 2.6 17 7 2 8 29% 15398 81806 16759 46%
c e 11.23 30 196 0 18 3539 19 52138 15077 2.6 17 7 2 8 29% 15367 81842 16739 46%
c ^ 11.23 30 196 0 18 3539 19 52138 15077 2.6 17 7 2 8 29% 15367 81842 16739 46%
c - 11.49 30 193 0 19 3660 19 53838 12994 2.6 17 7 2 8 29% 15375 81842 16739 46%
c - 11.93 30 187 0 20 3922 19 58197 14633 2.5 16 6 2 7 29% 15446 81842 16739 46%
c
c  seconds   switched     rate         size/glue tier1    binary          remaining
c         MB   reductions   conflicts        size  tier2      irredundant
c           level   restarts      redundant    glue   trail          variables
c
c c 12.02 30 186 0 20 3943 19 58884 15101 2.5 16 6 2 7 29% 15502 81654 16699 46%
c d 12.03 30 186 0 20 3943 19 58884 14847 2.5 16 6 2 7 29% 15422 81654 16699 46%
c u 12.09 30 186 0 20 3943 19 58884 12641 2.5 16 6 2 7 29% 15440 81654 16699 46%
c v 12.14 30 186 0 20 3943 19 58884 11463 2.5 16 6 2 7 29% 15443 81654 16699 46%
c w 12.16 30 186 0 20 3943 19 58884 11453 2.5 16 6 2 7 29% 15443 81654 16699 46%
c x 12.21 30 186 0 20 3943 19 58884 11453 2.5 16 6 2 7 29% 15447 81412 16699 46%
c = 12.42 30 186 0 20 3943 19 58884 11453 2.5 16 6 2 7 29% 15769 81412 16538 46%
c d 12.43 30 186 0 20 3943 19 58884 11375 2.5 16 6 2 7 29% 15424 81412 16538 46%
c t 12.45 30 186 0 20 3943 19 58884 11375 2.5 16 6 2 7 29% 15336 81412 16538 46%
c f 12.50 30 186 0 20 3943 19 58884 11375 2.5 16 6 2 7 29% 15409 81122 16579 46%
c u 12.55 30 186 0 20 3943 19 58884 10843 2.5 16 6 2 7 29% 15413 81122 16579 46%
c v 12.60 30 186 0 20 3943 19 58884 10204 2.5 16 6 2 7 29% 15416 81122 16579 46%
c w 12.61 30 186 0 20 3943 19 58884 10193 2.5 16 6 2 7 29% 15416 81122 16579 46%
c x 12.69 30 186 0 20 3943 19 58884 10186 2.5 16 6 2 7 29% 15524 78631 16579 46%
c = 12.93 30 186 0 20 3943 19 58884 10186 2.5 16 6 2 7 29% 16882 78623 15900 44%
c d 12.94 30 186 0 20 3943 19 58884 9997 2.5 16 6 2 7 29% 15497 78623 15900 44%
c t 12.95 30 186 0 20 3943 19 58884 9997 2.5 16 6 2 7 29% 15337 78623 15900 44%
c f 12.98 30 186 0 20 3943 19 58884 9997 2.5 16 6 2 7 29% 15427 78184 15963 44%
c - 13.35 30 181 0 21 4141 18 62671 11773 2.5 16 6 2 7 29% 15467 78183 15963 44%
c - 13.81 30 175 0 22 4386 18 67254 14142 2.4 16 6 2 7 29% 15536 78183 15963 44%
c
c  seconds   switched     rate         size/glue tier1    binary          remaining
c         MB   reductions   conflicts        size  tier2      irredundant
c           level   restarts      redundant    glue   trail          variables
c
c o 14.33 30 172 0 22 4681 18 70887 17414 2.4 16 6 2 7 29% 15589 78182 15963 44%
c - 14.58 30 171 0 23 4764 18 71944 16076 2.4 16 6 2 7 29% 15598 78182 15963 44%
c - 15.76 30 166 0 24 5150 18 76739 17786 2.4 15 6 2 7 29% 15646 78182 15963 44%
c c 16.48 30 163 0 24 5362 17 79939 20596 2.4 15 6 2 7 29% 15718 78104 15939 44%
c d 16.49 30 163 0 24 5362 17 79939 20494 2.4 15 6 2 7 29% 15670 78104 15939 44%
c u 16.63 30 163 0 24 5362 17 79939 17694 2.4 15 6 2 7 29% 15689 78104 15939 44%
c v 16.74 30 163 0 24 5362 17 79939 16989 2.4 15 6 2 7 29% 15691 78104 15939 44%
c w 16.80 30 163 0 24 5362 17 79939 16988 2.4 15 6 2 7 29% 15691 78104 15939 44%
c x 16.92 30 163 0 24 5362 17 79939 16986 2.4 15 6 2 7 29% 15754 76065 15939 44%
c = 17.05 30 163 0 24 5362 17 79939 16986 2.4 15 6 2 7 29% 15794 76065 15919 44%
c d 17.06 30 163 0 24 5362 17 79939 16943 2.4 15 6 2 7 29% 15745 76065 15916 44%
c t 17.09 30 163 0 24 5362 17 79939 16943 2.4 15 6 2 7 29% 15706 76065 15916 44%
c f 17.11 30 163 0 24 5362 17 79939 16943 2.4 15 6 2 7 29% 15715 76018 15923 44%
c c 17.19 30 163 0 24 5362 17 79939 16929 2.4 15 6 2 7 29% 15718 76006 15921 44%
c d 17.20 30 163 0 24 5362 17 79939 16929 2.4 15 6 2 7 29% 15714 76006 15921 44%
c u 17.32 30 163 0 24 5362 17 79939 15972 2.4 15 6 2 7 29% 15728 76006 15921 44%
c v 17.44 30 163 0 24 5362 17 79939 14364 2.4 15 6 2 7 29% 15734 76006 15921 44%
c w 17.48 30 163 0 24 5362 17 79939 14345 2.4 15 6 2 7 29% 15734 76006 15921 44%
c x 17.60 30 163 0 24 5362 17 79939 14343 2.4 15 6 2 7 29% 15778 75570 15921 44%
c = 18.05 30 163 0 24 5362 17 79939 14343 2.4 15 6 2 7 29% 16511 75525 15552 43%
c
c  seconds   switched     rate         size/glue tier1    binary          remaining
c         MB   reductions   conflicts        size  tier2      irredundant
c           level   restarts      redundant    glue   trail          variables
c
c d 18.07 30 163 0 24 5362 17 79939 14101 2.4 15 6 2 7 29% 15743 75525 15552 43%
c t 18.10 30 163 0 24 5362 17 79939 14101 2.4 15 6 2 7 29% 15608 75525 15552 43%
c f 18.12 30 163 0 24 5362 17 79939 14101 2.4 15 6 2 7 29% 15637 75359 15576 43%
c - 18.49 30 161 0 25 5450 17 81637 13837 2.4 15 6 2 7 29% 15655 75359 15576 43%
c - 19.77 30 157 0 26 5821 17 86637 16230 2.4 15 6 2 7 29% 15700 75359 15576 43%
c - 20.92 30 156 0 27 6266 17 91736 18379 2.4 15 6 2 7 29% 15747 75356 15576 43%
c s 21.79 30 156 0 27 6615 17 95791 21952 2.4 15 6 2 7 29% 15812 72057 15576 43%
c e 21.97 30 156 0 27 6615 17 95791 21952 2.4 15 6 2 7 29% 11801 83053 13265 37%
c 2 21.97 30 156 0 27 6615 17 95791 21952 2.4 15 6 2 7 29% 11797 83053 13265 37%
c s 22.01 30 156 0 27 6615 17 95791 21952 2.4 15 6 2 7 29% 11895 81640 13265 37%
c e 22.05 30 156 0 27 6615 17 95791 21952 2.4 15 6 2 7 29% 11759 81838 13202 36%
c ^ 22.05 30 156 0 27 6615 17 95791 21952 2.4 15 6 2 7 29% 11759 81838 13202 36%
c - 22.30 29 155 0 28 6713 17 96932 14553 2.3 15 6 2 7 29% 11765 81837 13202 36%
c - 23.18 29 153 0 29 7141 17 102223 17066 2.3 15 6 2 7 30% 11814 81837 13202 36%
c d 23.49 29 152 0 29 7344 17 104547 19163 2.3 15 6 2 7 30% 11815 81835 13194 36%
c u 23.56 29 152 0 29 7344 17 104547 16329 2.3 15 6 2 7 30% 11833 81835 13194 36%
c v 23.64 29 152 0 29 7344 17 104547 14283 2.3 15 6 2 7 30% 11835 81835 13194 36%
c w 23.69 29 152 0 29 7344 17 104547 14281 2.3 15 6 2 7 30% 11835 81835 13194 36%
c x 23.75 29 152 0 29 7344 17 104547 14275 2.3 15 6 2 7 30% 11849 81057 13194 36%
c = 24.14 29 152 0 29 7344 17 104547 14275 2.3 15 6 2 7 30% 12243 80997 12992 36%
c
c  seconds   switched     rate          size/glue tier1    binary          remaining
c         MB   reductions   conflicts         size  tier2      irredundant
c           level   restarts       redundant    glue   trail          variables
c
c d 24.15 29 152 0 29 7344 17 104547 14033 2.3 15 6 2 7 30% 11827 80997 12992 36%
c t 24.16 29 152 0 29 7344 17 104547 14033 2.3 15 6 2 7 30% 11729 80997 12992 36%
c f 24.27 29 152 0 29 7344 17 104547 14033 2.3 15 6 2 7 30% 11750 80881 13001 36%
c u 24.36 29 152 0 29 7344 17 104547 13433 2.3 15 6 2 7 30% 11765 80881 13001 36%
c v 24.42 29 152 0 29 7344 17 104547 12966 2.3 15 6 2 7 30% 11767 80881 13001 36%
c w 24.50 29 152 0 29 7344 17 104547 12891 2.3 15 6 2 7 30% 11767 80881 13001 36%
c x 24.57 29 152 0 29 7344 17 104547 12882 2.3 15 6 2 7 30% 11783 79541 13001 36%
c = 24.94 29 152 0 29 7344 17 104547 12882 2.3 15 6 2 7 30% 12057 79519 12863 36%
c d 24.95 29 152 0 29 7344 17 104547 12785 2.3 15 6 2 7 30% 11777 79519 12863 36%
c t 24.96 29 152 0 29 7344 17 104547 12785 2.3 15 6 2 7 30% 11735 79519 12863 36%
c f 24.97 29 152 0 29 7344 17 104547 12785 2.3 15 6 2 7 30% 11751 79424 12871 36%
c - 25.56 29 151 0 30 7629 17 107608 13878 2.3 15 6 2 7 30% 11759 79423 12871 36%
c o 26.21 29 149 0 30 7985 17 110887 16889 2.3 15 6 2 7 30% 11777 79422 12871 36%
c - 26.67 29 148 0 31 8199 17 113085 16656 2.3 15 6 2 7 31% 11791 79415 12871 36%
c - 27.48 29 145 0 32 8717 17 118656 18952 2.3 15 6 2 7 30% 11827 79413 12871 36%
c i 27.67 29 145 0 32 8872 17 120287 20404 2.3 15 6 2 7 30% 11849 79410 12870 36%
c i 27.69 29 145 0 32 8887 17 120793 20875 2.3 15 6 2 7 30% 11852 79410 12868 36%
c i 27.76 29 145 0 32 8926 17 121382 21431 2.3 15 6 2 7 30% 11855 79410 12867 36%
c i 27.78 29 145 0 32 8938 17 121729 21707 2.3 15 6 2 7 30% 11865 79410 12866 36%
c i 27.78 29 145 0 32 8938 17 121734 21707 2.3 15 6 2 7 30% 11866 79410 12865 36%
c
c  seconds   switched     rate          size/glue tier1    binary          remaining
c         MB   reductions   conflicts         size  tier2      irredundant
c           level   restarts       redundant    glue   trail          variables
c
c i 27.78 29 145 0 32 8938 17 121736 21708 2.3 15 6 2 7 30% 11866 79410 12863 36%
c i 27.86 29 144 0 32 8972 17 122559 22462 2.3 15 6 2 7 30% 11875 79410 12862 36%
c i 27.92 29 144 0 32 9020 17 123038 22908 2.2 15 6 2 7 30% 11878 79410 12861 36%
c - 28.09 29 143 0 33 9121 17 124312 20663 2.2 15 6 2 6 31% 11863 79410 12861 36%
c i 28.11 29 143 0 33 9127 17 124477 20797 2.2 15 6 2 6 31% 11866 79410 12860 36%
c i 28.22 29 143 0 33 9233 17 125269 21527 2.2 15 7 2 6 31% 11876 79410 12859 36%
c i 28.29 29 143 0 33 9288 17 125666 21886 2.2 15 7 2 6 31% 11880 79410 12858 36%
c i 28.41 29 143 0 33 9381 17 126578 22720 2.2 15 7 2 6 31% 11886 79410 12857 36%
c i 28.65 29 141 0 33 9589 17 129376 25228 2.2 15 7 2 6 31% 11910 79407 12856 36%
c i 28.76 29 140 0 33 9693 17 130047 25853 2.2 15 7 2 6 31% 11915 79406 12855 36%
c - 28.77 29 140 0 34 9696 17 130057 22162 2.2 15 7 2 6 31% 11903 79406 12855 36%
c i 28.87 29 140 0 34 9782 17 130913 22951 2.2 15 7 2 6 31% 11917 79406 12854 36%
c i 28.89 29 140 0 34 9791 17 131173 23192 2.2 15 7 2 6 31% 11919 79406 12853 36%
c i 28.92 29 140 0 34 9799 17 131409 23411 2.2 15 7 2 6 31% 11921 79406 12852 35%
c i 29.02 29 140 0 34 9891 17 132252 24183 2.2 15 7 2 6 31% 11930 79406 12850 35%
c d 29.09 29 139 0 34 9933 17 132782 24513 2.2 15 7 2 6 31% 11955 79219 12837 35%
c d 29.09 29 139 0 34 9933 17 132782 24498 2.2 15 7 2 6 31% 11910 79217 12815 35%
c u 29.17 29 139 0 34 9933 17 132782 21315 2.2 15 7 2 6 31% 11941 79217 12812 35%
c v 29.24 29 139 0 34 9933 17 132782 20207 2.2 15 7 2 6 31% 11941 79217 12812 35%
c w 29.28 29 139 0 34 9933 17 132782 20192 2.2 15 7 2 6 31% 11941 79217 12812 35%
c
c  seconds   switched     rate          size/glue tier1    binary          remaining
c         MB   reductions   conflicts         size  tier2      irredundant
c           level   restarts       redundant    glue   trail          variables
c
c x 29.37 29 139 0 34 9933 17 132782 20179 2.2 15 7 2 6 31% 12004 76053 12812 35%
c = 29.41 29 139 0 34 9933 17 132782 20179 2.2 15 7 2 6 31% 12159 75775 12703 35%
c } 29.41 29 139 0 34 9933 17 132782 20179 2.2 15 7 2 6 31% 12159 75775 12775 35%
c 0 29.41 29 139 0 34 9933 17 132782 20179 2.2 15 7 2 6 31% 12159 75775 12775 35%
c
c ---- [ result ] ------------------------------------------------------------
c
s UNSATISFIABLE
c
c ---- [ profiling ] ---------------------------------------------------------
c
c          20.27   68.94 %  search
c          20.27   68.94 %  focused
c           8.51   28.94 %  simplify
c           8.11   27.58 %  probe
c           3.15   10.70 %  sweep
c           2.97   10.11 %  vivify
c           0.76    2.58 %  factor
c           0.74    2.50 %  eliminate
c           0.53    1.81 %  preprocess
c           0.53    1.81 %  congruence
c           0.50    1.68 %  substitute
c           0.19    0.64 %  fastel
c           0.19    0.63 %  reduce
c           0.15    0.51 %  subsume
c           0.14    0.46 %  transitive
c           0.07    0.23 %  backbone
c           0.05    0.18 %  lucky
c           0.04    0.12 %  parse
c =============================================
c          29.41  100.00 %  total
c
c ---- [ statistics ] --------------------------------------------------------
c
c chronological:                         3167                2 %  conflicts
c conflicts:                           132782             4515.24 per second
c congruent:                             3578               10 %  variables
c decisions:                          2248116               16.93 per conflict
c eliminated:                           16578               46 %  variables
c factored:                              3276                9 %  variables
c fast_eliminated:                       9163               55 %  eliminated
c fast_strengthened:                      381                8 %  per strengthened
c fast_subsumed:                           93                1 %  per subsumed
c iterations:                              18                0 %  variables
c propagations:                     128418886          4366875    per second
c reductions:                              34             3905    interval
c reordered:                                5            26556    interval
c restarts:                              9933               13    interval
c strengthened:                          4735                0 %  checks
c substituted:                          10053               28 %  variables
c subsumed:                             16045                1 %  checks
c switched:                                 0                0    interval
c vivified:                             73141               15 %  checks
c
c ---- [ glue usage ] --------------------------------------------------------
c
c focused glue 2 used 60910 clauses 27.01% accumulated 63.72% tier1
c focused glue 3 used 30363 clauses 13.46% accumulated 77.18%
c focused glue 4 used 14300 clauses  6.34% accumulated 83.52%
c focused glue 5 used  8987 clauses  3.98% accumulated 87.51%
c focused glue 6 used  6025 clauses  2.67% accumulated 90.18% tier2
c
c ---- [ resources ] ---------------------------------------------------------
c
c maximum-resident-set-size:         31711232 bytes         30 MB
c process-time:                            29s              29.41 seconds
c
c ---- [ shutting down ] -----------------------------------------------------
c
c exit 20
